unsat
((set-logic NIA)
(declare-fun p!5 () Int)
(declare-fun s!0 () Int)
(declare-fun q!3 () Int)
(declare-fun r!1 () Int)
(declare-fun a!4 () Int)
(declare-fun b!2 () Int)
(proof
(let ((?x801 (* r!1 q!3)))
 (let ((?x41 (* q00 r00)))
 (let ((?x431 (* (- 1) ?x41)))
 (let ((?x37 (* p00 s00)))
 (let ((?x778 (+ ?x37 ?x431 ?x801 (* (- 1) (* s!0 p!5)))))
 (let (($x793 (>= ?x778 0)))
 (let (($x776 (= ?x778 0)))
 (let ((?x1462 (* r!1 r!1 s!0 b!2 b!2 b!2 a!4 a!4 a!4 p!5 p!5 p!5)))
 (let ((?x1454 (* r!1 r!1 s!0 q!3 a!4 a!4 a!4 a!4 a!4 a!4 p!5 p!5)))
 (let ((?x1397 (* r!1 r!1 s!0 b!2 b!2 b!2 q!3 a!4 a!4 a!4 p!5 p!5)))
 (let ((?x1393 (* r!1 r!1 r!1 a!4 a!4 a!4 a!4 a!4 a!4 p!5 p!5 p!5)))
 (let ((?x1391 (* r!1 r!1 r!1 b!2 b!2 a!4 a!4 a!4 a!4 p!5 p!5 p!5)))
 (let ((?x1388 (* r!1 r!1 r!1 b!2 b!2 b!2 a!4 a!4 a!4 p!5 p!5 p!5)))
 (let ((?x1377 (* r!1 r!1 r!1 b!2 q!3 a!4 a!4 a!4 a!4 a!4 p!5 p!5)))
 (let ((?x1375 (* r!1 r!1 r!1 q!3 a!4 a!4 a!4 a!4 a!4 a!4 p!5 p!5)))
 (let ((?x1373 (* r!1 r!1 r!1 b!2 b!2 q!3 a!4 a!4 a!4 a!4 p!5 p!5)))
 (let ((?x1372 (* r!1 r!1 r!1 b!2 b!2 b!2 q!3 a!4 a!4 a!4 p!5 p!5)))
 (let ((?x1363 (* r!1 r!1 s!0 a!4 a!4 a!4 a!4 a!4 a!4 p!5 p!5 p!5)))
 (let ((?x1360 (* r!1 r!1 s!0 b!2 a!4 a!4 a!4 a!4 a!4 p!5 p!5 p!5)))
 (let ((?x1339 (* r!1 r!1 r!1 b!2 a!4 a!4 a!4 a!4 a!4 p!5 p!5 p!5)))
 (let ((?x1283 (* r!1 r!1 s!0 b!2 q!3 a!4 a!4 a!4 a!4 a!4 p!5 p!5)))
 (let ((?x1137 (* r!1 s!0 b!2 b!2 q!3 p!5)))
 (let ((?x954 (* r!1 r!1 s!0 b!2 b!2 a!4 a!4 a!4 a!4 p!5 p!5 p!5)))
 (let ((?x904 (* r!1 r!1 s!0 b!2 b!2 q!3 a!4 a!4 a!4 a!4 p!5 p!5)))
 (let ((?x892 (* r!1 r!1 s!0 s!0 b!2 q!3 p!5)))
 (let ((?x823 (* (- 1) p!5)))
 (let ((?x1135 (+ q!3 ?x823)))
 (let ((?x824 (* (- 1) a!4)))
 (let ((?x854 (+ b!2 ?x824)))
 (let ((?x592 (+ (* (- 1) r!1) s!0)))
 (let ((?x852 (* ?x592 ?x592 ?x592 ?x854 ?x854 ?x854 ?x1135 ?x1135 r!1 r!1 r!1 p!5 p!5)))
 (let ((?x334 (+ (* r!1 r!1 s!0 s!0 a!4 p!5 p!5) (* (- 1) (* r!1 r!1 r!1 r!1 q!3 a!4 p!5)) (* 2 (* r!1 r!1 r!1 s!0 q!3 a!4 p!5)) (* (- 2) (* r!1 r!1 r!1 s!0 a!4 p!5 p!5)) (* (- 2) (* r!1 r!1 r!1 s!0 b!2 q!3 p!5)) (* (- 1) ?x852) ?x892 (* (- 3) ?x904) (* 3 ?x954) ?x1137 (* r!1 r!1 r!1 r!1 a!4 p!5 p!5) (* (- 1) (* r!1 r!1 r!1 r!1 b!2 p!5 p!5)) (* r!1 r!1 r!1 r!1 b!2 q!3 p!5) (* 2 (* r!1 r!1 r!1 s!0 b!2 p!5 p!5)) (* 3 ?x1283) (* (- 1) (* r!1 r!1 s!0 s!0 q!3 a!4 p!5)) (* (- 1) (* r!1 r!1 s!0 s!0 b!2 p!5 p!5)) (* 3 ?x1339) (* (- 3) ?x1360) ?x1363 (* (- 1) ?x1372) (* 3 ?x1373) ?x1375 (* (- 3) ?x1377) ?x1388 (* (- 3) ?x1391) (* (- 1) ?x1393) ?x1397 (* r!1 r!1 a!4 a!4 p!5 p!5) (* (- 2) (* r!1 r!1 b!2 a!4 p!5 p!5)) (* r!1 r!1 b!2 b!2 p!5 p!5) (* (- 1) (* r!1 r!1 q!3 a!4 a!4 p!5)) (* r!1 s!0 q!3 a!4 a!4 p!5) (* (- 1) (* r!1 s!0 b!2 b!2 p!5 p!5)) (* 2 (* r!1 s!0 b!2 a!4 p!5 p!5)) (* (- 1) (* r!1 s!0 a!4 a!4 p!5 p!5)) (* (- 1) (* r!1 r!1 b!2 b!2 q!3 p!5)) (* 2 (* r!1 r!1 b!2 q!3 a!4 p!5)) (* (- 2) (* r!1 s!0 b!2 q!3 a!4 p!5)) (* (- 1) ?x1454) (* (- 1) ?x1462))))
 (let ((?x803 (* s!0 p!5)))
 (let ((?x143 (* (- 1) ?x37)))
 (let ((?x1080 (+ ?x143 ?x41 (* (- 1) ?x801) ?x803)))
 (let ((?x1347 (* ?x1080 ?x334)))
 (let (($x1284 (= ?x1347 0)))
 (let ((?x1203 (* r!1 r!1 r!1 s!0 s!0 s!0 b!2 b!2 b!2 q!3 q!3 q!3 p!5)))
 (let ((?x1163 (* r!1 r!1 r!1 s!0 s!0 s!0 b!2 b!2 b!2 q!3 q!3 q!3 q!3)))
 (let ((?x1568 (* (- 1) q!3)))
 (let ((?x287 (+ ?x1568 p!5)))
 (let ((?x272 (* (- 1) b!2)))
 (let ((?x485 (+ ?x272 a!4)))
 (let ((?x1264 (+ r!1 (* (- 1) s!0))))
 (let ((?x1148 (* ?x1264 ?x1264 ?x485 ?x485 ?x485 ?x287 ?x287 s!0 b!2 b!2 b!2 q!3)))
 (let ((?x1113 (* r!1 r!1 s!0 s!0 s!0 s!0 b!2 b!2 b!2 q!3 q!3 q!3 q!3)))
 (let ((?x918 (* r!1 r!1 s!0 s!0 s!0 s!0 b!2 b!2 b!2 q!3 q!3 p!5 p!5)))
 (let ((?x907 (* r!1 r!1 r!1 s!0 s!0 s!0 b!2 b!2 b!2 q!3 q!3 p!5 p!5)))
 (let ((?x562 (* s!0 s!0 s!0 s!0 s!0 s!0 b!2 b!2 b!2 q!3 q!3 q!3 p!5)))
 (let ((?x550 (* r!1 s!0 s!0 s!0 s!0 s!0 b!2 b!2 b!2 q!3 q!3 q!3 p!5)))
 (let ((?x459 (* s!0 s!0 s!0 s!0 s!0 s!0 b!2 b!2 b!2 q!3 q!3 q!3 q!3)))
 (let ((?x458 (* r!1 s!0 s!0 s!0 s!0 s!0 b!2 b!2 b!2 q!3 q!3 p!5 p!5)))
 (let ((?x451 (* r!1 s!0 s!0 s!0 s!0 s!0 b!2 b!2 b!2 q!3 q!3 q!3 q!3)))
 (let ((?x439 (* s!0 s!0 s!0 s!0 s!0 s!0 b!2 b!2 b!2 q!3 q!3 p!5 p!5)))
 (let ((?x426 (* r!1 r!1 s!0 s!0 s!0 s!0 b!2 b!2 b!2 q!3 q!3 q!3 p!5)))
 (let ((?x1446 (+ (* (- 6) ?x426) ?x439 (* (- 3) ?x451) (* (- 3) ?x458) ?x459 (* 6 ?x550) (* (- 2) ?x562) (* 2 (* r!1 s!0 s!0 s!0 b!2 q!3 q!3)) (* (- 2) (* r!1 s!0 s!0 s!0 b!2 q!3 p!5)) (* s!0 s!0 s!0 s!0 b!2 q!3 p!5) ?x892 (* (- 1) (* r!1 s!0 b!2 b!2 q!3 q!3)) (* s!0 s!0 b!2 b!2 q!3 q!3) (* (- 1) (* s!0 s!0 b!2 b!2 q!3 p!5)) (* (- 1) ?x907) (* 3 ?x918) (* (- 1) (* s!0 s!0 s!0 s!0 b!2 q!3 q!3)) (* 3 ?x1113) (* (- 1) (* r!1 r!1 s!0 s!0 b!2 q!3 q!3)) ?x1137 ?x1148 (* (- 1) ?x1163) (* 2 ?x1203))))
 (let ((?x1445 (* ?x1080 ?x1446)))
 (let (($x609 (= ?x1445 0)))
 (let (($x1441 (not $x609)))
 (let (($x1455 (or $x1441 (not $x1284))))
 (let ((?x612 (+ (* q00 a00 s!0) (* (- 1) (* s00 a00 q!3)) (* (- 1) (* p00 b00 s!0)) (* (- 1) (* q00 r00 b!2)) (* p00 s00 b!2) (* r00 b00 q!3))))
 (let ((?x581 (+ (* s00 a00 p!5) (* (- 1) (* q00 a00 r!1)) (* p00 b00 r!1) (* (- 1) (* r00 b00 p!5)) (* (- 1) (* p00 s00 a!4)) (* q00 r00 a!4))))
 (let ((?x138 (* q00 a00)))
 (let ((?x708 (+ ?x138 (* (- 1) (* p00 b00)) (* b!2 p!5) (* (- 1) (* q!3 a!4)))))
 (let ((?x134 (* s00 a00)))
 (let ((?x738 (+ ?x134 (* (- 1) (* r00 b00)) (* r!1 b!2) (* (- 1) (* s!0 a!4)))))
 (let (($x1205 (and $x776 (= ?x738 0) (= ?x708 0) (= ?x581 0) (= ?x612 0) $x1455)))
 (let ((?x1387 (* p!5 p!5 a!4 a!4 a!4 q!3 b!2 b!2 b!2 r!1 r!1 s!0)))
 (let ((?x1392 (* p!5 p!5 p!5 a!4 a!4 a!4 a!4 a!4 a!4 r!1 r!1 r!1)))
 (let ((?x717 (* p!5 p!5 p!5 a!4 a!4 a!4 a!4 a!4 b!2 r!1 r!1 r!1)))
 (let ((?x711 (* p!5 p!5 p!5 a!4 a!4 a!4 a!4 b!2 b!2 r!1 r!1 r!1)))
 (let ((?x575 (* p!5 p!5 p!5 a!4 a!4 a!4 b!2 b!2 b!2 r!1 r!1 r!1)))
 (let ((?x574 (* p!5 p!5 a!4 a!4 a!4 a!4 a!4 a!4 q!3 r!1 r!1 r!1)))
 (let ((?x1071 (* p!5 p!5 a!4 a!4 a!4 a!4 a!4 q!3 b!2 r!1 r!1 r!1)))
 (let ((?x602 (* p!5 p!5 a!4 a!4 a!4 a!4 q!3 b!2 b!2 r!1 r!1 r!1)))
 (let ((?x1247 (* p!5 p!5 a!4 a!4 a!4 q!3 b!2 b!2 b!2 r!1 r!1 r!1)))
 (let ((?x1245 (* p!5 p!5 p!5 a!4 a!4 a!4 a!4 a!4 a!4 r!1 r!1 s!0)))
 (let ((?x1087 (* p!5 p!5 p!5 a!4 a!4 a!4 a!4 a!4 b!2 r!1 r!1 s!0)))
 (let ((?x1036 (* p!5 p!5 p!5 a!4 a!4 a!4 a!4 b!2 b!2 r!1 r!1 s!0)))
 (let ((?x737 (* p!5 p!5 p!5 a!4 a!4 a!4 b!2 b!2 b!2 r!1 r!1 s!0)))
 (let ((?x742 (* p!5 p!5 a!4 a!4 a!4 a!4 a!4 a!4 q!3 r!1 r!1 s!0)))
 (let ((?x464 (* p!5 p!5 a!4 a!4 a!4 a!4 a!4 q!3 b!2 r!1 r!1 s!0)))
 (let ((?x452 (* p!5 p!5 a!4 a!4 a!4 a!4 q!3 b!2 b!2 r!1 r!1 s!0)))
 (let ((?x565 (* p!5 q!3 b!2 b!2 r!1 s!0)))
 (let ((?x535 (* p!5 q!3 b!2 r!1 r!1 s!0 s!0)))
 (let ((?x444 (+ ?x823 q!3)))
 (let ((?x880 (+ ?x824 b!2)))
 (let ((?x483 (* ?x592 ?x592 ?x592 ?x880 ?x880 ?x880 ?x444 ?x444 r!1 r!1 r!1 p!5 p!5)))
 (let ((?x881 (+ (* (- 1) ?x483) ?x535 ?x565 (* (- 3) ?x452) (* 3 ?x464) (* (- 1) ?x742) (* (- 1) ?x737) (* 3 ?x1036) (* (- 3) ?x1087) ?x1245 (* (- 1) ?x1247) (* 3 ?x602) (* (- 3) ?x1071) ?x574 ?x575 (* (- 3) ?x711) (* 3 ?x717) (* (- 1) ?x1392) ?x1387 (* p!5 p!5 a!4 a!4 r!1 r!1) (* (- 2) (* p!5 p!5 a!4 b!2 r!1 r!1)) (* p!5 p!5 b!2 b!2 r!1 r!1) (* (- 1) (* p!5 a!4 a!4 q!3 r!1 r!1)) (* 2 (* p!5 a!4 q!3 b!2 r!1 r!1)) (* (- 1) (* p!5 q!3 b!2 b!2 r!1 r!1)) (* (- 1) (* p!5 p!5 a!4 a!4 r!1 s!0)) (* 2 (* p!5 p!5 a!4 b!2 r!1 s!0)) (* (- 1) (* p!5 p!5 b!2 b!2 r!1 s!0)) (* p!5 a!4 a!4 q!3 r!1 s!0) (* (- 2) (* p!5 a!4 q!3 b!2 r!1 s!0)) (* p!5 p!5 a!4 r!1 r!1 r!1 r!1) (* (- 1) (* p!5 p!5 b!2 r!1 r!1 r!1 r!1)) (* (- 1) (* p!5 a!4 q!3 r!1 r!1 r!1 r!1)) (* p!5 q!3 b!2 r!1 r!1 r!1 r!1) (* (- 2) (* p!5 p!5 a!4 r!1 r!1 r!1 s!0)) (* 2 (* p!5 p!5 b!2 r!1 r!1 r!1 s!0)) (* 2 (* p!5 a!4 q!3 r!1 r!1 r!1 s!0)) (* (- 2) (* p!5 q!3 b!2 r!1 r!1 r!1 s!0)) (* p!5 p!5 a!4 r!1 r!1 s!0 s!0) (* (- 1) (* p!5 p!5 b!2 r!1 r!1 s!0 s!0)) (* (- 1) (* p!5 a!4 q!3 r!1 r!1 s!0 s!0)))))
 (let ((?x674 (+ (* p!5 s!0) ?x143 ?x41 (* (- 1) (* q!3 r!1)))))
 (let ((?x1572 (+ p!5 ?x1568)))
 (let ((?x1161 (+ a!4 ?x272)))
 (let ((?x1573 (* ?x1264 ?x1264 ?x1161 ?x1161 ?x1161 ?x1572 ?x1572 s!0 b!2 b!2 b!2 q!3)))
 (let ((?x1267 (* q!3 q!3 q!3 q!3 b!2 b!2 b!2 s!0 s!0 s!0 s!0 s!0 s!0)))
 (let ((?x1273 (* p!5 p!5 q!3 q!3 b!2 b!2 b!2 r!1 s!0 s!0 s!0 s!0 s!0)))
 (let ((?x1218 (* p!5 p!5 q!3 q!3 b!2 b!2 b!2 s!0 s!0 s!0 s!0 s!0 s!0)))
 (let ((?x1231 (* p!5 q!3 q!3 q!3 b!2 b!2 b!2 r!1 r!1 r!1 s!0 s!0 s!0)))
 (let ((?x1424 (* p!5 q!3 q!3 q!3 b!2 b!2 b!2 r!1 r!1 s!0 s!0 s!0 s!0)))
 (let ((?x1417 (* p!5 q!3 q!3 q!3 b!2 b!2 b!2 r!1 s!0 s!0 s!0 s!0 s!0)))
 (let ((?x1003 (* p!5 q!3 q!3 q!3 b!2 b!2 b!2 s!0 s!0 s!0 s!0 s!0 s!0)))
 (let ((?x156 (* q!3 q!3 q!3 q!3 b!2 b!2 b!2 r!1 r!1 r!1 s!0 s!0 s!0)))
 (let ((?x525 (* q!3 q!3 q!3 q!3 b!2 b!2 b!2 r!1 r!1 s!0 s!0 s!0 s!0)))
 (let ((?x512 (* q!3 q!3 q!3 q!3 b!2 b!2 b!2 r!1 s!0 s!0 s!0 s!0 s!0)))
 (let ((?x1527 (* p!5 p!5 q!3 q!3 b!2 b!2 b!2 r!1 r!1 r!1 s!0 s!0 s!0)))
 (let ((?x478 (* p!5 p!5 q!3 q!3 b!2 b!2 b!2 r!1 r!1 s!0 s!0 s!0 s!0)))
 (let ((?x726 (+ (* p!5 q!3 b!2 s!0 s!0 s!0 s!0) (* 2 (* q!3 q!3 b!2 r!1 s!0 s!0 s!0)) (* (- 2) (* p!5 q!3 b!2 r!1 s!0 s!0 s!0)) (* (- 1) (* q!3 q!3 b!2 r!1 r!1 s!0 s!0)) ?x535 (* q!3 q!3 b!2 b!2 s!0 s!0) (* (- 1) (* p!5 q!3 b!2 b!2 s!0 s!0)) (* (- 1) (* q!3 q!3 b!2 b!2 r!1 s!0)) ?x565 (* (- 1) (* q!3 q!3 b!2 s!0 s!0 s!0 s!0)) (* 3 ?x478) (* (- 1) ?x1527) (* (- 3) ?x512) (* 3 ?x525) (* (- 1) ?x156) (* (- 2) ?x1003) (* 6 ?x1417) (* (- 6) ?x1424) (* 2 ?x1231) ?x1218 (* (- 3) ?x1273) ?x1267 ?x1573)))
 (let ((?x421 (+ (* b!2 q00 r00) (* (- 1) (* b!2 p00 s00)) (* s!0 p00 b00) (* (- 1) (* q!3 r00 b00)) (* q!3 s00 a00) (* (- 1) (* s!0 q00 a00)))))
 (let ((?x529 (+ (* a!4 p00 s00) (* (- 1) (* a!4 q00 r00)) (* p!5 r00 b00) (* (- 1) (* r!1 p00 b00)) (* (- 1) (* p!5 s00 a00)) (* r!1 q00 a00))))
 (let ((?x139 (* p00 b00)))
 (let ((?x182 (* (- 1) ?x138)))
 (let ((?x152 (* r00 b00)))
 (let ((?x141 (* (- 1) ?x134)))
 (let (($x805 (and (= ?x674 0) (= (+ (* a!4 s!0) (* (- 1) (* b!2 r!1)) ?x141 ?x152) 0) (= (+ (* a!4 q!3) ?x182 ?x139 (* (- 1) (* p!5 b!2))) 0) (= ?x529 0) (= ?x421 0) (or (not (= (* ?x674 ?x726) 0)) (not (= (* ?x674 ?x881) 0))))))
 (let (($x937 (exists ((p Int) (a Int) (q Int) (b Int) (r Int) (s Int) )(! (let ((?x1230 (* (- 1) (* p a q r r s s))))
 (let ((?x1226 (* (- 1) (* p p b r r s s))))
 (let ((?x1214 (* p p a r r s s)))
 (let ((?x1239 (* (- 2) (* p q b r r r s))))
 (let ((?x1238 (* 2 (* p a q r r r s))))
 (let ((?x1237 (* 2 (* p p b r r r s))))
 (let ((?x1236 (* (- 2) (* p p a r r r s))))
 (let ((?x1140 (* p q b r r r r)))
 (let ((?x1134 (* (- 1) (* p a q r r r r))))
 (let ((?x1124 (* (- 1) (* p p b r r r r))))
 (let ((?x1112 (* p p a r r r r)))
 (let ((?x1078 (* (- 2) (* p a q b r s))))
 (let ((?x1055 (* p a a q r s)))
 (let ((?x1049 (* (- 1) (* p p b b r s))))
 (let ((?x1077 (* 2 (* p p a b r s))))
 (let ((?x1024 (* (- 1) (* p p a a r s))))
 (let ((?x1014 (* (- 1) (* p q b b r r))))
 (let ((?x1076 (* 2 (* p a q b r r))))
 (let ((?x989 (* (- 1) (* p a a q r r))))
 (let ((?x977 (* p p b b r r)))
 (let ((?x1075 (* (- 2) (* p p a b r r))))
 (let ((?x951 (* p p a a r r)))
 (let ((?x901 (* p p a a a q b b b r r s)))
 (let ((?x841 (* (- 1) (* p p p a a a a a a r r r))))
 (let ((?x909 (* 3 (* p p p a a a a a b r r r))))
 (let ((?x911 (* (- 3) (* p p p a a a a b b r r r))))
 (let ((?x787 (* p p p a a a b b b r r r)))
 (let ((?x779 (* p p a a a a a a q r r r)))
 (let ((?x912 (* (- 3) (* p p a a a a a q b r r r))))
 (let ((?x913 (* 3 (* p p a a a a q b b r r r))))
 (let ((?x719 (* (- 1) (* p p a a a q b b b r r r))))
 (let ((?x713 (* p p p a a a a a a r r s)))
 (let ((?x914 (* (- 3) (* p p p a a a a a b r r s))))
 (let ((?x915 (* 3 (* p p p a a a a b b r r s))))
 (let ((?x653 (* (- 1) (* p p p a a a b b b r r s))))
 (let ((?x643 (* (- 1) (* p p a a a a a a q r r s))))
 (let ((?x916 (* 3 (* p p a a a a a q b r r s))))
 (let ((?x917 (* (- 3) (* p p a a a a q b b r r s))))
 (let ((?x530 (* p q b b r s)))
 (let ((?x473 (* p q b r r s s)))
 (let ((?x344 (* (- 1) p)))
 (let ((?x414 (+ ?x344 q)))
 (let ((?x586 (* (- 1) a)))
 (let ((?x582 (+ ?x586 b)))
 (let ((?x568 (* (- 1) r)))
 (let ((?x573 (+ ?x568 s)))
 (let ((?x303 (* ?x573 ?x573 ?x573 ?x582 ?x582 ?x582 ?x414 ?x414 r r r p p)))
 (let ((?x1624 (+ (* (- 1) ?x303) ?x473 ?x530 ?x917 ?x916 ?x643 ?x653 ?x915 ?x914 ?x713 ?x719 ?x913 ?x912 ?x779 ?x787 ?x911 ?x909 ?x841 ?x901 ?x951 ?x1075 ?x977 ?x989 ?x1076 ?x1014 ?x1024 ?x1077 ?x1049 ?x1055 ?x1078 ?x1112 ?x1124 ?x1134 ?x1140 ?x1236 ?x1237 ?x1238 ?x1239 ?x1214 ?x1226 ?x1230)))
 (let ((?x127 (* (- 1) (* q r))))
 (let ((?x41 (* q00 r00)))
 (let ((?x37 (* p00 s00)))
 (let ((?x143 (* (- 1) ?x37)))
 (let ((?x33 (* p s)))
 (let ((?x157 (+ ?x33 ?x143 ?x41 ?x127)))
 (let ((?x278 (* (- 1) q)))
 (let ((?x279 (+ p ?x278)))
 (let ((?x416 (+ a (* (- 1) b))))
 (let ((?x260 (* (- 1) s)))
 (let ((?x262 (+ r ?x260)))
 (let ((?x952 (* ?x262 ?x262 ?x416 ?x416 ?x416 ?x279 ?x279 s b b b q)))
 (let ((?x900 (* q q q q b b b s s s s s s)))
 (let ((?x847 (* p p q q b b b r s s s s s)))
 (let ((?x816 (* p p q q b b b s s s s s s)))
 (let ((?x802 (* p q q q b b b r r r s s s)))
 (let ((?x794 (* p q q q b b b r r s s s s)))
 (let ((?x777 (* p q q q b b b r s s s s s)))
 (let ((?x739 (* p q q q b b b s s s s s s)))
 (let ((?x665 (* q q q q b b b r r r s s s)))
 (let ((?x652 (* q q q q b b b r r s s s s)))
 (let ((?x627 (* q q q q b b b r s s s s s)))
 (let ((?x601 (* p p q q b b b r r r s s s)))
 (let ((?x570 (* p p q q b b b r r s s s s)))
 (let ((?x552 (* (- 1) (* q q b s s s s))))
 (let ((?x520 (* (- 1) (* q q b b r s))))
 (let ((?x510 (* (- 1) (* p q b b s s))))
 (let ((?x504 (* q q b b s s)))
 (let ((?x463 (* (- 1) (* q q b r r s s))))
 (let ((?x559 (* (- 2) (* p q b r s s s))))
 (let ((?x561 (* 2 (* q q b r s s s))))
 (let ((?x424 (* p q b s s s s)))
 (let ((?x1199 (+ ?x424 ?x561 ?x559 ?x463 ?x473 ?x504 ?x510 ?x520 ?x530 ?x552 (* 3 ?x570) (* (- 1) ?x601) (* (- 3) ?x627) (* 3 ?x652) (* (- 1) ?x665) (* (- 2) ?x739) (* 6 ?x777) (* (- 6) ?x794) (* 2 ?x802) ?x816 (* (- 3) ?x847) ?x900 ?x952)))
 (let ((?x72 (* b q00 r00)))
 (let ((?x314 (+ ?x72 (* (- 1) (* b p00 s00)) (* s p00 b00) (* (- 1) (* q r00 b00)) (* q s00 a00) (* (- 1) (* s q00 a00)))))
 (let (($x319 (= ?x314 0)))
 (let ((?x63 (* a p00 s00)))
 (let ((?x250 (+ ?x63 (* (- 1) (* a q00 r00)) (* p r00 b00) (* (- 1) (* r p00 b00)) (* (- 1) (* p s00 a00)) (* r q00 a00))))
 (let (($x251 (= ?x250 0)))
 (let ((?x139 (* p00 b00)))
 (let ((?x138 (* q00 a00)))
 (let ((?x182 (* (- 1) ?x138)))
 (let (($x185 (= (+ (* a q) ?x182 ?x139 (* (- 1) (* p b))) 0)))
 (let ((?x152 (* r00 b00)))
 (let ((?x134 (* s00 a00)))
 (let ((?x141 (* (- 1) ?x134)))
 (let ((?x49 (* a s)))
 (let (($x167 (= (+ ?x49 (* (- 1) (* b r)) ?x141 ?x152) 0)))
 (let (($x162 (= ?x157 0)))
 (and $x162 $x167 $x185 $x251 $x319 (or (not (= (* ?x157 ?x1199) 0)) (not (= (* ?x157 ?x1624) 0))))))))))))))))))))))))))))))))))))))))))))))))))))))))))))))))))))))))))))))))))))))))))))))))))))) :qid k!39))
 ))
 (let (($x1035 (exists ((p Int) (a Int) (q Int) (b Int) (r Int) (s Int) )(! (let ((?x344 (* (- 1) p)))
 (let ((?x985 (+ q ?x344)))
 (let ((?x586 (* (- 1) a)))
 (let ((?x955 (+ b ?x586)))
 (let ((?x568 (* (- 1) r)))
 (let ((?x435 (+ s ?x568)))
 (let ((?x339 (* ?x435 ?x435 ?x435 ?x955 ?x955 ?x955 ?x985 ?x985 r r r p p)))
 (let ((?x1019 (+ (* (- 1) ?x339) (* ?x435 ?x955 ?x955 ?x955 ?x985 r r a a a p p) (* ?x435 ?x955 ?x955 ?x985 r p) (* ?x435 ?x435 ?x955 ?x985 r r p))))
 (let ((?x41 (* q00 r00)))
 (let ((?x37 (* p00 s00)))
 (let ((?x143 (* (- 1) ?x37)))
 (let (($x1020 (= (* (+ (* (- 1) (* ?x985 r)) (* ?x435 p) ?x143 ?x41) ?x1019) 0)))
 (let ((?x278 (* (- 1) q)))
 (let ((?x279 (+ p ?x278)))
 (let ((?x260 (* (- 1) s)))
 (let ((?x262 (+ r ?x260)))
 (let ((?x416 (+ a (* (- 1) b))))
 (let ((?x952 (* ?x262 ?x262 ?x416 ?x416 ?x416 ?x279 ?x279 s b b b q)))
 (let ((?x1015 (* ?x262 ?x262 ?x262 ?x279 ?x279 s s s b b b q q)))
 (let ((?x981 (+ (* (- 1) ?x1015) ?x952 (* ?x262 ?x279 s b b q) (* ?x262 ?x262 ?x279 s s b q))))
 (let (($x932 (= (* (+ (* (- 1) (* ?x262 q)) (* ?x279 s) ?x143 ?x41) ?x981) 0)))
 (let (($x1027 (or (not $x932) (not $x1020))))
 (let ((?x73 (* b00 p00 s)))
 (let ((?x599 (+ (* q00 r00 b) ?x73 (* (- 1) (* b00 r00 q)) (* (- 1) (* p00 s00 b)) (* a00 s00 q) (* (- 1) (* a00 q00 s)))))
 (let (($x1215 (= ?x599 0)))
 (let ((?x69 (* a00 q00 r)))
 (let ((?x502 (* p00 s00 a)))
 (let ((?x963 (* b00 r00 p)))
 (let ((?x767 (+ ?x963 ?x502 (* (- 1) (* b00 p00 r)) (* (- 1) (* q00 r00 a)) (* (- 1) (* a00 s00 p)) ?x69)))
 (let ((?x57 (* b00 p00)))
 (let ((?x312 (* q a)))
 (let (($x310 (= (+ ?x312 (* (- 1) (* a00 q00)) ?x57 (* (- 1) (* b p))) 0)))
 (let ((?x47 (* a00 s00)))
 (let ((?x300 (* r b)))
 (let (($x233 (= (+ ?x300 ?x47 (* (- 1) (* s a)) (* (- 1) (* b00 r00))) 0)))
 (let (($x1026 (= (+ (* r q) (* (- 1) (* s p)) ?x37 (* (- 1) ?x41)) 0)))
 (and $x1026 $x233 $x310 (= ?x767 0) $x1215 $x1027))))))))))))))))))))))))))))))))))))) :qid k!39))
 ))
 (let ((?x1029 (lambda ((p Int) (a Int) (q Int) (b Int) (r Int) (s Int) )(let ((?x1230 (* (- 1) (* p a q r r s s))))
 (let ((?x1226 (* (- 1) (* p p b r r s s))))
 (let ((?x1214 (* p p a r r s s)))
 (let ((?x1239 (* (- 2) (* p q b r r r s))))
 (let ((?x1238 (* 2 (* p a q r r r s))))
 (let ((?x1237 (* 2 (* p p b r r r s))))
 (let ((?x1236 (* (- 2) (* p p a r r r s))))
 (let ((?x1140 (* p q b r r r r)))
 (let ((?x1134 (* (- 1) (* p a q r r r r))))
 (let ((?x1124 (* (- 1) (* p p b r r r r))))
 (let ((?x1112 (* p p a r r r r)))
 (let ((?x1078 (* (- 2) (* p a q b r s))))
 (let ((?x1055 (* p a a q r s)))
 (let ((?x1049 (* (- 1) (* p p b b r s))))
 (let ((?x1077 (* 2 (* p p a b r s))))
 (let ((?x1024 (* (- 1) (* p p a a r s))))
 (let ((?x1014 (* (- 1) (* p q b b r r))))
 (let ((?x1076 (* 2 (* p a q b r r))))
 (let ((?x989 (* (- 1) (* p a a q r r))))
 (let ((?x977 (* p p b b r r)))
 (let ((?x1075 (* (- 2) (* p p a b r r))))
 (let ((?x951 (* p p a a r r)))
 (let ((?x901 (* p p a a a q b b b r r s)))
 (let ((?x841 (* (- 1) (* p p p a a a a a a r r r))))
 (let ((?x909 (* 3 (* p p p a a a a a b r r r))))
 (let ((?x911 (* (- 3) (* p p p a a a a b b r r r))))
 (let ((?x787 (* p p p a a a b b b r r r)))
 (let ((?x779 (* p p a a a a a a q r r r)))
 (let ((?x912 (* (- 3) (* p p a a a a a q b r r r))))
 (let ((?x913 (* 3 (* p p a a a a q b b r r r))))
 (let ((?x719 (* (- 1) (* p p a a a q b b b r r r))))
 (let ((?x713 (* p p p a a a a a a r r s)))
 (let ((?x914 (* (- 3) (* p p p a a a a a b r r s))))
 (let ((?x915 (* 3 (* p p p a a a a b b r r s))))
 (let ((?x653 (* (- 1) (* p p p a a a b b b r r s))))
 (let ((?x643 (* (- 1) (* p p a a a a a a q r r s))))
 (let ((?x916 (* 3 (* p p a a a a a q b r r s))))
 (let ((?x917 (* (- 3) (* p p a a a a q b b r r s))))
 (let ((?x530 (* p q b b r s)))
 (let ((?x473 (* p q b r r s s)))
 (let ((?x344 (* (- 1) p)))
 (let ((?x414 (+ ?x344 q)))
 (let ((?x586 (* (- 1) a)))
 (let ((?x582 (+ ?x586 b)))
 (let ((?x568 (* (- 1) r)))
 (let ((?x573 (+ ?x568 s)))
 (let ((?x303 (* ?x573 ?x573 ?x573 ?x582 ?x582 ?x582 ?x414 ?x414 r r r p p)))
 (let ((?x1624 (+ (* (- 1) ?x303) ?x473 ?x530 ?x917 ?x916 ?x643 ?x653 ?x915 ?x914 ?x713 ?x719 ?x913 ?x912 ?x779 ?x787 ?x911 ?x909 ?x841 ?x901 ?x951 ?x1075 ?x977 ?x989 ?x1076 ?x1014 ?x1024 ?x1077 ?x1049 ?x1055 ?x1078 ?x1112 ?x1124 ?x1134 ?x1140 ?x1236 ?x1237 ?x1238 ?x1239 ?x1214 ?x1226 ?x1230)))
 (let ((?x127 (* (- 1) (* q r))))
 (let ((?x41 (* q00 r00)))
 (let ((?x37 (* p00 s00)))
 (let ((?x143 (* (- 1) ?x37)))
 (let ((?x33 (* p s)))
 (let ((?x157 (+ ?x33 ?x143 ?x41 ?x127)))
 (let ((?x278 (* (- 1) q)))
 (let ((?x279 (+ p ?x278)))
 (let ((?x416 (+ a (* (- 1) b))))
 (let ((?x260 (* (- 1) s)))
 (let ((?x262 (+ r ?x260)))
 (let ((?x952 (* ?x262 ?x262 ?x416 ?x416 ?x416 ?x279 ?x279 s b b b q)))
 (let ((?x900 (* q q q q b b b s s s s s s)))
 (let ((?x847 (* p p q q b b b r s s s s s)))
 (let ((?x816 (* p p q q b b b s s s s s s)))
 (let ((?x802 (* p q q q b b b r r r s s s)))
 (let ((?x794 (* p q q q b b b r r s s s s)))
 (let ((?x777 (* p q q q b b b r s s s s s)))
 (let ((?x739 (* p q q q b b b s s s s s s)))
 (let ((?x665 (* q q q q b b b r r r s s s)))
 (let ((?x652 (* q q q q b b b r r s s s s)))
 (let ((?x627 (* q q q q b b b r s s s s s)))
 (let ((?x601 (* p p q q b b b r r r s s s)))
 (let ((?x570 (* p p q q b b b r r s s s s)))
 (let ((?x552 (* (- 1) (* q q b s s s s))))
 (let ((?x520 (* (- 1) (* q q b b r s))))
 (let ((?x510 (* (- 1) (* p q b b s s))))
 (let ((?x504 (* q q b b s s)))
 (let ((?x463 (* (- 1) (* q q b r r s s))))
 (let ((?x559 (* (- 2) (* p q b r s s s))))
 (let ((?x561 (* 2 (* q q b r s s s))))
 (let ((?x424 (* p q b s s s s)))
 (let ((?x1199 (+ ?x424 ?x561 ?x559 ?x463 ?x473 ?x504 ?x510 ?x520 ?x530 ?x552 (* 3 ?x570) (* (- 1) ?x601) (* (- 3) ?x627) (* 3 ?x652) (* (- 1) ?x665) (* (- 2) ?x739) (* 6 ?x777) (* (- 6) ?x794) (* 2 ?x802) ?x816 (* (- 3) ?x847) ?x900 ?x952)))
 (let ((?x72 (* b q00 r00)))
 (let ((?x314 (+ ?x72 (* (- 1) (* b p00 s00)) (* s p00 b00) (* (- 1) (* q r00 b00)) (* q s00 a00) (* (- 1) (* s q00 a00)))))
 (let (($x319 (= ?x314 0)))
 (let ((?x63 (* a p00 s00)))
 (let ((?x250 (+ ?x63 (* (- 1) (* a q00 r00)) (* p r00 b00) (* (- 1) (* r p00 b00)) (* (- 1) (* p s00 a00)) (* r q00 a00))))
 (let (($x251 (= ?x250 0)))
 (let ((?x139 (* p00 b00)))
 (let ((?x138 (* q00 a00)))
 (let ((?x182 (* (- 1) ?x138)))
 (let (($x185 (= (+ (* a q) ?x182 ?x139 (* (- 1) (* p b))) 0)))
 (let ((?x152 (* r00 b00)))
 (let ((?x134 (* s00 a00)))
 (let ((?x141 (* (- 1) ?x134)))
 (let ((?x49 (* a s)))
 (let (($x167 (= (+ ?x49 (* (- 1) (* b r)) ?x141 ?x152) 0)))
 (let (($x162 (= ?x157 0)))
 (let (($x1652 (and $x162 $x167 $x185 $x251 $x319 (or (not (= (* ?x157 ?x1199) 0)) (not (= (* ?x157 ?x1624) 0))))))
 (let ((?x985 (+ q ?x344)))
 (let ((?x955 (+ b ?x586)))
 (let ((?x435 (+ s ?x568)))
 (let ((?x339 (* ?x435 ?x435 ?x435 ?x955 ?x955 ?x955 ?x985 ?x985 r r r p p)))
 (let ((?x1019 (+ (* (- 1) ?x339) (* ?x435 ?x955 ?x955 ?x955 ?x985 r r a a a p p) (* ?x435 ?x955 ?x955 ?x985 r p) (* ?x435 ?x435 ?x955 ?x985 r r p))))
 (let (($x1020 (= (* (+ (* (- 1) (* ?x985 r)) (* ?x435 p) ?x143 ?x41) ?x1019) 0)))
 (let ((?x1015 (* ?x262 ?x262 ?x262 ?x279 ?x279 s s s b b b q q)))
 (let ((?x981 (+ (* (- 1) ?x1015) ?x952 (* ?x262 ?x279 s b b q) (* ?x262 ?x262 ?x279 s s b q))))
 (let (($x932 (= (* (+ (* (- 1) (* ?x262 q)) (* ?x279 s) ?x143 ?x41) ?x981) 0)))
 (let (($x1027 (or (not $x932) (not $x1020))))
 (let ((?x73 (* b00 p00 s)))
 (let ((?x599 (+ (* q00 r00 b) ?x73 (* (- 1) (* b00 r00 q)) (* (- 1) (* p00 s00 b)) (* a00 s00 q) (* (- 1) (* a00 q00 s)))))
 (let (($x1215 (= ?x599 0)))
 (let ((?x69 (* a00 q00 r)))
 (let ((?x502 (* p00 s00 a)))
 (let ((?x963 (* b00 r00 p)))
 (let ((?x767 (+ ?x963 ?x502 (* (- 1) (* b00 p00 r)) (* (- 1) (* q00 r00 a)) (* (- 1) (* a00 s00 p)) ?x69)))
 (let ((?x57 (* b00 p00)))
 (let ((?x312 (* q a)))
 (let (($x310 (= (+ ?x312 (* (- 1) (* a00 q00)) ?x57 (* (- 1) (* b p))) 0)))
 (let ((?x47 (* a00 s00)))
 (let ((?x300 (* r b)))
 (let (($x233 (= (+ ?x300 ?x47 (* (- 1) (* s a)) (* (- 1) (* b00 r00))) 0)))
 (let (($x1026 (= (+ (* r q) (* (- 1) (* s p)) ?x37 (* (- 1) ?x41)) 0)))
 (let (($x526 (and $x1026 $x233 $x310 (= ?x767 0) $x1215 $x1027)))
 (rewrite (= $x526 $x1652))))))))))))))))))))))))))))))))))))))))))))))))))))))))))))))))))))))))))))))))))))))))))))))))))))))))))))))))))))))))))))))
 ))
 (let (($x968 (exists ((p Int) (a Int) (q Int) (b Int) (r Int) (s Int) )(! (let ((?x344 (* (- 1) p)))
 (let ((?x985 (+ q ?x344)))
 (let ((?x586 (* (- 1) a)))
 (let ((?x955 (+ b ?x586)))
 (let ((?x568 (* (- 1) r)))
 (let ((?x435 (+ s ?x568)))
 (let ((?x339 (* ?x435 ?x435 ?x435 ?x955 ?x955 ?x955 ?x985 ?x985 r r r p p)))
 (let ((?x1019 (+ (* (- 1) ?x339) (* ?x435 ?x955 ?x955 ?x955 ?x985 r r a a a p p) (* ?x435 ?x955 ?x955 ?x985 r p) (* ?x435 ?x435 ?x955 ?x985 r r p))))
 (let ((?x41 (* q00 r00)))
 (let ((?x37 (* p00 s00)))
 (let ((?x143 (* (- 1) ?x37)))
 (let (($x1020 (= (* (+ (* (- 1) (* ?x985 r)) (* ?x435 p) ?x143 ?x41) ?x1019) 0)))
 (let ((?x278 (* (- 1) q)))
 (let ((?x279 (+ p ?x278)))
 (let ((?x260 (* (- 1) s)))
 (let ((?x262 (+ r ?x260)))
 (let ((?x416 (+ a (* (- 1) b))))
 (let ((?x952 (* ?x262 ?x262 ?x416 ?x416 ?x416 ?x279 ?x279 s b b b q)))
 (let ((?x1015 (* ?x262 ?x262 ?x262 ?x279 ?x279 s s s b b b q q)))
 (let ((?x981 (+ (* (- 1) ?x1015) ?x952 (* ?x262 ?x279 s b b q) (* ?x262 ?x262 ?x279 s s b q))))
 (let (($x932 (= (* (+ (* (- 1) (* ?x262 q)) (* ?x279 s) ?x143 ?x41) ?x981) 0)))
 (let (($x1027 (or (not $x932) (not $x1020))))
 (let ((?x73 (* b00 p00 s)))
 (let ((?x599 (+ (* q00 r00 b) ?x73 (* (- 1) (* b00 r00 q)) (* (- 1) (* p00 s00 b)) (* a00 s00 q) (* (- 1) (* a00 q00 s)))))
 (let (($x1215 (= ?x599 0)))
 (let ((?x555 (* a00 s00 p)))
 (let ((?x545 (* q00 r00 a)))
 (let ((?x65 (* b00 p00 r)))
 (let ((?x1154 (+ (* (- 1) (* b00 r00 p)) (* (- 1) (* p00 s00 a)) ?x65 ?x545 ?x555 (* (- 1) (* a00 q00 r)))))
 (let ((?x59 (* b p)))
 (let ((?x55 (* a00 q00)))
 (let (($x509 (= (+ (* (- 1) (* q a)) ?x55 (* (- 1) (* b00 p00)) ?x59) 0)))
 (let ((?x51 (* b00 r00)))
 (let ((?x477 (* s a)))
 (let (($x648 (= (+ (* (- 1) (* r b)) (* (- 1) (* a00 s00)) ?x477 ?x51) 0)))
 (and (= (+ (* (- 1) (* r q)) (* s p) ?x143 ?x41) 0) $x648 $x509 (= ?x1154 0) $x1215 $x1027)))))))))))))))))))))))))))))))))))) :qid k!39))
 ))
 (let ((?x764 (lambda ((p Int) (a Int) (q Int) (b Int) (r Int) (s Int) )(let ((?x344 (* (- 1) p)))
 (let ((?x985 (+ q ?x344)))
 (let ((?x586 (* (- 1) a)))
 (let ((?x955 (+ b ?x586)))
 (let ((?x568 (* (- 1) r)))
 (let ((?x435 (+ s ?x568)))
 (let ((?x339 (* ?x435 ?x435 ?x435 ?x955 ?x955 ?x955 ?x985 ?x985 r r r p p)))
 (let ((?x1019 (+ (* (- 1) ?x339) (* ?x435 ?x955 ?x955 ?x955 ?x985 r r a a a p p) (* ?x435 ?x955 ?x955 ?x985 r p) (* ?x435 ?x435 ?x955 ?x985 r r p))))
 (let ((?x41 (* q00 r00)))
 (let ((?x37 (* p00 s00)))
 (let ((?x143 (* (- 1) ?x37)))
 (let (($x1020 (= (* (+ (* (- 1) (* ?x985 r)) (* ?x435 p) ?x143 ?x41) ?x1019) 0)))
 (let ((?x278 (* (- 1) q)))
 (let ((?x279 (+ p ?x278)))
 (let ((?x260 (* (- 1) s)))
 (let ((?x262 (+ r ?x260)))
 (let ((?x416 (+ a (* (- 1) b))))
 (let ((?x952 (* ?x262 ?x262 ?x416 ?x416 ?x416 ?x279 ?x279 s b b b q)))
 (let ((?x1015 (* ?x262 ?x262 ?x262 ?x279 ?x279 s s s b b b q q)))
 (let ((?x981 (+ (* (- 1) ?x1015) ?x952 (* ?x262 ?x279 s b b q) (* ?x262 ?x262 ?x279 s s b q))))
 (let (($x932 (= (* (+ (* (- 1) (* ?x262 q)) (* ?x279 s) ?x143 ?x41) ?x981) 0)))
 (let (($x1027 (or (not $x932) (not $x1020))))
 (let ((?x73 (* b00 p00 s)))
 (let ((?x599 (+ (* q00 r00 b) ?x73 (* (- 1) (* b00 r00 q)) (* (- 1) (* p00 s00 b)) (* a00 s00 q) (* (- 1) (* a00 q00 s)))))
 (let (($x1215 (= ?x599 0)))
 (let ((?x69 (* a00 q00 r)))
 (let ((?x502 (* p00 s00 a)))
 (let ((?x963 (* b00 r00 p)))
 (let ((?x767 (+ ?x963 ?x502 (* (- 1) (* b00 p00 r)) (* (- 1) (* q00 r00 a)) (* (- 1) (* a00 s00 p)) ?x69)))
 (let ((?x57 (* b00 p00)))
 (let ((?x312 (* q a)))
 (let (($x310 (= (+ ?x312 (* (- 1) (* a00 q00)) ?x57 (* (- 1) (* b p))) 0)))
 (let ((?x47 (* a00 s00)))
 (let ((?x300 (* r b)))
 (let (($x233 (= (+ ?x300 ?x47 (* (- 1) (* s a)) (* (- 1) (* b00 r00))) 0)))
 (let (($x1026 (= (+ (* r q) (* (- 1) (* s p)) ?x37 (* (- 1) ?x41)) 0)))
 (let (($x526 (and $x1026 $x233 $x310 (= ?x767 0) $x1215 $x1027)))
 (let ((?x555 (* a00 s00 p)))
 (let ((?x545 (* q00 r00 a)))
 (let ((?x65 (* b00 p00 r)))
 (let (($x1032 (= (+ (* (- 1) ?x963) (* (- 1) ?x502) ?x65 ?x545 ?x555 (* (- 1) ?x69)) 0)))
 (let (($x509 (= (+ (* (- 1) ?x312) (* a00 q00) (* (- 1) ?x57) (* b p)) 0)))
 (let (($x648 (= (+ (* (- 1) ?x300) (* (- 1) ?x47) (* s a) (* b00 r00)) 0)))
 (let (($x1013 (and (= (+ (* (- 1) (* r q)) (* s p) ?x143 ?x41) 0) $x648 $x509 $x1032 $x1215 $x1027)))
 (rewrite (= $x1013 $x526)))))))))))))))))))))))))))))))))))))))))))))))
 ))
 (let (($x118 (exists ((p Int) (a Int) (q Int) (b Int) (r Int) (s Int) )(! (let ((?x102 (- s r)))
 (let ((?x100 (- q p)))
 (let ((?x107 (- b a)))
 (let ((?x31 (- 1)))
 (let ((?x108 (* ?x31 ?x107 ?x107 ?x107 p p ?x100 ?x100 r r r ?x102 ?x102 ?x102)))
 (let ((?x112 (+ ?x108 (* a a a ?x107 ?x107 ?x107 p p ?x100 r r ?x102) (* ?x107 ?x107 p ?x100 r ?x102) (* ?x107 p ?x100 r r ?x102 ?x102))))
 (let ((?x41 (* q00 r00)))
 (let ((?x113 (* (+ (- (+ (* ?x31 ?x100 r) (* p ?x102)) (* p00 s00)) ?x41) ?x112)))
 (let ((?x84 (- r s)))
 (let ((?x86 (- p q)))
 (let ((?x92 (- a b)))
 (let ((?x91 (* ?x31 b b b ?x86 ?x86 q q ?x84 ?x84 ?x84 s s s)))
 (let ((?x96 (+ ?x91 (* ?x92 ?x92 ?x92 b b b ?x86 ?x86 q ?x84 ?x84 s) (* b b ?x86 q ?x84 s) (* b ?x86 q ?x84 ?x84 s s))))
 (let ((?x97 (* (+ (- (+ (* ?x31 q ?x84) (* ?x86 s)) (* p00 s00)) ?x41) ?x96)))
 (let ((?x81 (* a00 q00 s)))
 (let ((?x76 (* b p00 s00)))
 (let ((?x77 (- (+ (* b q00 r00) (* b00 p00 s)) (* b00 q r00))))
 (let ((?x69 (* a00 q00 r)))
 (let ((?x66 (* a q00 r00)))
 (let ((?x65 (* b00 p00 r)))
 (let ((?x68 (+ (- (* ?x31 b00 p r00) (* a p00 s00)) ?x65 ?x66 (* a00 p s00))))
 (let ((?x59 (* b p)))
 (let ((?x60 (+ (- (+ (* ?x31 a q) (* a00 q00)) (* b00 p00)) ?x59)))
 (let ((?x51 (* b00 r00)))
 (let ((?x49 (* a s)))
 (let (($x44 (= (+ (- (+ (* ?x31 q r) (* p s)) (* p00 s00)) ?x41) 0)))
 (and $x44 (= (+ (- (* ?x31 b r) (* a00 s00)) ?x49 ?x51) 0) (= ?x60 0) (= (- ?x68 ?x69) 0) (= (- (+ (- ?x77 ?x76) (* a00 q s00)) ?x81) 0) (or (not (= ?x97 0)) (not (= ?x113 0)))))))))))))))))))))))))))))) :qid k!39))
 ))
 (let ((?x1229 (lambda ((p Int) (a Int) (q Int) (b Int) (r Int) (s Int) )(let ((?x344 (* (- 1) p)))
 (let ((?x985 (+ q ?x344)))
 (let ((?x586 (* (- 1) a)))
 (let ((?x955 (+ b ?x586)))
 (let ((?x568 (* (- 1) r)))
 (let ((?x435 (+ s ?x568)))
 (let ((?x339 (* ?x435 ?x435 ?x435 ?x955 ?x955 ?x955 ?x985 ?x985 r r r p p)))
 (let ((?x1019 (+ (* (- 1) ?x339) (* ?x435 ?x955 ?x955 ?x955 ?x985 r r a a a p p) (* ?x435 ?x955 ?x955 ?x985 r p) (* ?x435 ?x435 ?x955 ?x985 r r p))))
 (let ((?x41 (* q00 r00)))
 (let ((?x37 (* p00 s00)))
 (let ((?x143 (* (- 1) ?x37)))
 (let (($x1020 (= (* (+ (* (- 1) (* ?x985 r)) (* ?x435 p) ?x143 ?x41) ?x1019) 0)))
 (let ((?x278 (* (- 1) q)))
 (let ((?x279 (+ p ?x278)))
 (let ((?x260 (* (- 1) s)))
 (let ((?x262 (+ r ?x260)))
 (let ((?x416 (+ a (* (- 1) b))))
 (let ((?x952 (* ?x262 ?x262 ?x416 ?x416 ?x416 ?x279 ?x279 s b b b q)))
 (let ((?x1015 (* ?x262 ?x262 ?x262 ?x279 ?x279 s s s b b b q q)))
 (let ((?x981 (+ (* (- 1) ?x1015) ?x952 (* ?x262 ?x279 s b b q) (* ?x262 ?x262 ?x279 s s b q))))
 (let (($x932 (= (* (+ (* (- 1) (* ?x262 q)) (* ?x279 s) ?x143 ?x41) ?x981) 0)))
 (let (($x1027 (or (not $x932) (not $x1020))))
 (let ((?x73 (* b00 p00 s)))
 (let ((?x599 (+ (* q00 r00 b) ?x73 (* (- 1) (* b00 r00 q)) (* (- 1) (* p00 s00 b)) (* a00 s00 q) (* (- 1) (* a00 q00 s)))))
 (let (($x1215 (= ?x599 0)))
 (let ((?x555 (* a00 s00 p)))
 (let ((?x545 (* q00 r00 a)))
 (let ((?x65 (* b00 p00 r)))
 (let ((?x1154 (+ (* (- 1) (* b00 r00 p)) (* (- 1) (* p00 s00 a)) ?x65 ?x545 ?x555 (* (- 1) (* a00 q00 r)))))
 (let ((?x59 (* b p)))
 (let ((?x55 (* a00 q00)))
 (let (($x509 (= (+ (* (- 1) (* q a)) ?x55 (* (- 1) (* b00 p00)) ?x59) 0)))
 (let ((?x51 (* b00 r00)))
 (let ((?x477 (* s a)))
 (let (($x648 (= (+ (* (- 1) (* r b)) (* (- 1) (* a00 s00)) ?x477 ?x51) 0)))
 (let (($x1013 (and (= (+ (* (- 1) (* r q)) (* s p) ?x143 ?x41) 0) $x648 $x509 (= ?x1154 0) $x1215 $x1027)))
 (let ((?x102 (- s r)))
 (let ((?x100 (- q p)))
 (let ((?x107 (- b a)))
 (let ((?x31 (- 1)))
 (let ((?x108 (* ?x31 ?x107 ?x107 ?x107 p p ?x100 ?x100 r r r ?x102 ?x102 ?x102)))
 (let ((?x112 (+ ?x108 (* a a a ?x107 ?x107 ?x107 p p ?x100 r r ?x102) (* ?x107 ?x107 p ?x100 r ?x102) (* ?x107 p ?x100 r r ?x102 ?x102))))
 (let (($x114 (= (* (+ (- (+ (* ?x31 ?x100 r) (* p ?x102)) ?x37) ?x41) ?x112) 0)))
 (let ((?x84 (- r s)))
 (let ((?x86 (- p q)))
 (let ((?x92 (- a b)))
 (let ((?x91 (* ?x31 b b b ?x86 ?x86 q q ?x84 ?x84 ?x84 s s s)))
 (let ((?x96 (+ ?x91 (* ?x92 ?x92 ?x92 b b b ?x86 ?x86 q ?x84 ?x84 s) (* b b ?x86 q ?x84 s) (* b ?x86 q ?x84 ?x84 s s))))
 (let (($x98 (= (* (+ (- (+ (* ?x31 q ?x84) (* ?x86 s)) ?x37) ?x41) ?x96) 0)))
 (let ((?x81 (* a00 q00 s)))
 (let ((?x76 (* b p00 s00)))
 (let ((?x80 (+ (- (- (+ (* b q00 r00) ?x73) (* b00 q r00)) ?x76) (* a00 q s00))))
 (let ((?x69 (* a00 q00 r)))
 (let ((?x66 (* a q00 r00)))
 (let ((?x68 (+ (- (* ?x31 b00 p r00) (* a p00 s00)) ?x65 ?x66 (* a00 p s00))))
 (let (($x53 (= (+ (- (* ?x31 b r) (* a00 s00)) (* a s) ?x51) 0)))
 (let (($x117 (and (= (+ (- (+ (* ?x31 q r) (* p s)) ?x37) ?x41) 0) $x53 (= (+ (- (+ (* ?x31 a q) ?x55) (* b00 p00)) ?x59) 0) (= (- ?x68 ?x69) 0) (= (- ?x80 ?x81) 0) (or (not $x98) (not $x114)))))
 (rewrite (= $x117 $x1013))))))))))))))))))))))))))))))))))))))))))))))))))))))))))))
 ))
 (let ((@x119 (asserted $x118)))
 (let ((@x1160 (mp (mp @x119 (quant-intro (proof-bind ?x1229) (= $x118 $x968)) $x968) (rewrite (= $x968 $x968)) $x968)))
 (let ((@x554 (mp (mp @x1160 (quant-intro (proof-bind ?x764) (= $x968 $x1035)) $x1035) (quant-intro (proof-bind ?x1029) (= $x1035 $x937)) $x937)))
 (let ((@x939 (mp (mp~ @x554 (sk (~ $x937 $x805)) $x805) (rewrite (= $x805 $x1205)) $x1205)))
 (let ((@x1334 (and-elim @x939 $x776)))
 (let ((@x677 (unit-resolution ((_ th-lemma arith triangle-eq) (or (not $x776) $x793)) @x1334 $x793)))
 (let (($x876 (<= ?x778 0)))
 (let ((@x791 (unit-resolution ((_ th-lemma arith triangle-eq) (or (not $x776) $x876)) @x1334 $x876)))
 (let (($x718 (not (<= ?x1445 0))))
 (let (($x663 (>= ?x1347 0)))
 (let (($x734 (<= ?x1347 0)))
 (let ((@x784 (unit-resolution ((_ th-lemma arith triangle-eq) (or $x1284 (not $x734) (not $x663))) (lemma ((_ th-lemma arith farkas 1 1 1) (hypothesis (not $x734)) @x791 @x677 false) $x734) (lemma ((_ th-lemma arith farkas 1 1 1) (hypothesis (not $x663)) @x791 @x677 false) $x663) $x1284)))
 (let (($x735 (>= ?x1445 0)))
 (let ((@x873 (unit-resolution ((_ th-lemma arith triangle-eq) (or $x609 $x718 (not $x735))) (lemma ((_ th-lemma arith farkas 1 1 1) (hypothesis (not $x735)) @x791 @x677 false) $x735) (unit-resolution (and-elim @x939 $x1455) @x784 $x1441) $x718)))
 ((_ th-lemma arith farkas 1 1 1) @x873 @x791 @x677 false)))))))))))))))))))))))))))))))))))))))))))))))))))))))))))))))))))))))))))))))))))))))))))))))))))))))))))))))))))))))))))))))))))))))))

(:added-eqs                 6
 :arith-assert-diseq        3
 :arith-assert-lower        29
 :arith-assert-upper        18
 :arith-conflicts           4
 :arith-eq-adapter          7
 :arith-fixed-eqs           6
 :arith-max-min             864
 :arith-nonlinear-bounds    10
 :arith-num-rows            14
 :arith-pivots              5
 :arith-pseudo-nonlinear    8
 :arith-row-summations      1
 :arith-tableau-max-columns 121
 :arith-tableau-max-rows    14
 :conflicts                 4
 :decisions                 7
 :del-clause                15
 :final-checks              4
 :max-memory                3.89
 :memory                    3.30
 :mk-bool-var               27
 :mk-clause                 24
 :num-allocs                1286592
 :num-checks                1
 :propagations              19
 :rlimit-count              8859
 :time                      0.01
 :total-time                0.02)
